Route #1: 26 72 58 10 38 65 11 53 7
Route #2: 12 39 9 40 17 51 6 68 30
Route #3: 45 29 48 37 36 47 21 28 74
Route #4: 5 15 57 20 70 60 71 69 61 22 62 2
Route #5: 33 73 1 43 42 64 41 56 23 63
Route #6: 16 49 24 18 55 25 50 32 44 3
Route #7: 31 66 59 14 19 54 13 27
Route #8: 67 34 46 35 8 52 4 75
Cost 799